problems/csplib-prob015/SchursLemma-models/noch/O2/lingeling/model_1_4-4-17-solution000001.eprime-solution
language ESSENCE' 1.0

letting boxes_PartitionOccurrence_FirstIndex be [1, 2, 3, 5; int(1..4)]
letting boxes_PartitionOccurrence_NumParts be 4
letting boxes_PartitionOccurrence_PartSizes be [3, 3, 7, 4; int(1..4)]
letting boxes_PartitionOccurrence_WhichPart be [1, 2, 3, 2, 4, 3, 3, 3, 4, 1, 4, 3, 2, 1, 4, 3, 3; int(1..17)]
