problems/csplib-prob015/SchursLemma-models/noch/O2/lingeling/model_1_4-4-17-solution000001.solution
language Essence 1.3

letting boxes be partition({1, 10, 14}, {2, 4, 13}, {3, 6, 7, 8, 12, 16, 17}, {5, 9, 11, 15})
